
Gurobi 9.5.2 (win64) logging started Mon Mar 27 20:26:47 2023

Set parameter LogFile to value "2023-03-27_20hr-25min-09sec/Nodes20_Arcs45_LocNodes15/Formulation-2Instance-4.log"
Set parameter TimeLimit to value 600
Set parameter IntFeasTol to value 1e-09
Set parameter DualReductions to value 0
Set parameter NonConvex to value 2
Gurobi Optimizer version 9.5.2 build v9.5.2rc0 (win64)
Thread count: 4 physical cores, 8 logical processors, using up to 8 threads
Optimize a model with 101 rows, 180 columns and 410 nonzeros
Model fingerprint: 0x3deea894
Model has 65 quadratic objective terms
Model has 65 SOS constraints
Variable types: 165 continuous, 15 integer (15 binary)
Coefficient statistics:
  Matrix range     [2e-02, 2e+02]
  Objective range  [3e-02, 1e+03]
  QObjective range [3e-02, 8e+00]
  Bounds range     [1e+00, 1e+00]
  RHS range        [3e-02, 1e+03]
Presolve removed 4 rows and 4 columns
Presolve time: 0.00s
Presolved: 97 rows, 176 columns, 407 nonzeros
Presolved model has 65 SOS constraint(s)
Presolved model has 65 quadratic objective terms
Variable types: 161 continuous, 15 integer (15 binary)

Root relaxation: objective 4.089204e+05, 224 iterations, 0.00 seconds (0.00 work units)

    Nodes    |    Current Node    |     Objective Bounds      |     Work
 Expl Unexpl |  Obj  Depth IntInf | Incumbent    BestBd   Gap | It/Node Time

     0     0 408920.403    0    8          - 408920.403      -     -    0s
H    0     0                    159731.12197 408920.403   156%     -    0s
H    0     0                    407730.52108 408920.403  0.29%     -    0s
H    0     0                    407886.81376 408920.403  0.25%     -    0s
     0     0 408730.770    0   12 407886.814 408730.770  0.21%     -    0s
     0     0 408730.770    0    7 407886.814 408730.770  0.21%     -    0s
     0     0 408730.770    0   11 407886.814 408730.770  0.21%     -    0s
     0     0 408730.770    0   11 407886.814 408730.770  0.21%     -    0s
     0     0 408730.770    0   12 407886.814 408730.770  0.21%     -    0s
     0     0 408722.387    0   12 407886.814 408722.387  0.20%     -    0s
     0     0 408640.083    0   12 407886.814 408640.083  0.18%     -    0s
     0     0 408519.785    0   13 407886.814 408519.785  0.16%     -    0s
     0     0 408517.996    0    6 407886.814 408517.996  0.15%     -    0s
     0     0 408517.996    0   30 407886.814 408517.996  0.15%     -    0s
     0     0 408517.996    0   29 407886.814 408517.996  0.15%     -    0s
     0     0 408517.996    0   29 407886.814 408517.996  0.15%     -    0s
     0     0 408517.996    0   29 407886.814 408517.996  0.15%     -    0s
     0     0 408517.996    0   29 407886.814 408517.996  0.15%     -    0s
     0     0 408170.994    0   15 407886.814 408170.994  0.07%     -    0s
     0     0 408135.941    0   14 407886.814 408135.941  0.06%     -    0s
     0     0 408000.651    0   11 407886.814 408000.651  0.03%     -    0s
     0     0 408000.651    0   11 407886.814 408000.651  0.03%     -    0s

Cutting planes:
  Gomory: 2
  Cover: 2
  Implied bound: 3
  Clique: 1
  MIR: 3
  Flow cover: 9
  Relax-and-lift: 2

Explored 1 nodes (806 simplex iterations) in 0.34 seconds (0.05 work units)
Thread count was 8 (of 8 available processors)

Solution count 3: 407887 407731 159731 

Optimal solution found (tolerance 1.00e-04)
Best objective 4.078868137592e+05, best bound 4.079063705899e+05, gap 0.0048%

User-callback calls 408, time in user-callback 0.01 sec
